248,92
204,28
159,265
192,5
106,273
115,72
61,391
256,242
52,148
283,4
9,225
99,93
165,140
164,341
67,166
359,147
373,234
188,312
392,41
147,301
240,8
265,62
372,228
397,279
54,207
111,327
222,185
137,365
173,304
94,183
47,166
90,79
172,205
132,400
271,399
171,307
116,284
188,289
35,392
186,359
115,30
229,111
394,126
167,299
177,117
302,218
1,128
30,88
82,118
227,115
